data/ILP/exact/instance012.lp
Minimize
obj: 146y_1 + 122y_2 + 10y_3 + 50y_4 + 64y_5 + 118y_6 + 28y_7 + 62y_8 + 74y_9 + 40y_10 + 62y_11 + 32y_12 + 28y_13 + 26y_14 + 74y_15 + 62y_16 + 40y_17 + 28y_18 + 90y_19 + 12y_20 + 46y_21 + 102y_22 + 146y_23 + 132y_24 + 70y_25 + 28y_26 + 28y_27 + 2y_28 + 74y_29 + 118y_30 + 2y_31 + 40y_32 + 74y_33 + 158y_34 + 36y_35 + 32y_36 + 32y_37 + 46y_38 + 16y_39 + 46y_40 + 16y_41 + 32y_42 + 132y_43 + 146y_44 + 29y_45 + 28y_46 + 64y_47 + 130y_48 + 8y_49 + 8y_50 + 2y_51 + 26y_52 + 40y_53 + 70y_54 + 28y_55 + 90y_56 + 28y_57 + 16y_58 + 132y_59 + 32y_60 + 112y_61 + 46y_62 + 84y_63 + 132y_64 + 40y_65 + 74y_66 + 32y_67 + 28y_68 + 24y_69 + 158y_70 + 6y_71 + 10y_72 + 64y_73 + 130y_74 + 32y_75 + 122y_76 + 54y_77 + 42y_78 + 2y_79 + 8y_80 + 54y_81 + 64y_82 + 130y_83 + 10y_84 + 36y_85 + 122y_86 + 32y_87 + 74y_88 + 32y_89 + 16y_90 + 140y_91 + 44y_92 + 132y_93 + 17y_94 + 70y_95 + 28y_96 + 84y_97 + 28y_98 + 132y_99 + 112y_100 + 40y_101 + 62y_102 + 2y_103 + 74y_104 + 2y_105 + 76y_106 + 26y_107 + 6y_108 + 76y_109 + 14y_110 + 122y_111 + 28y_112 + 16y_113 + 158y_114 + 32y_115 + 42y_116 + 8y_117 + 140y_118 + 16y_119 + 28y_120 + 28y_121 + 132y_122 + 112y_123 + 16y_124 + 28y_125 + 24y_126 + 132y_127 + 98y_128 + 14y_129 + 76y_130 + 36y_131 + 84y_132 + 158y_133 + 6y_134 + 70y_135 + 28y_136 + 90y_137 + 28y_138 + 64y_139 + 26y_140 + 76y_141 + 6y_142 + 20y_143 + 12y_144 + 62y_145 + 66y_146 + 26y_147 + 27y_148 + 7y_149 + 28y_150 + 98y_151 + 34y_152 + 14y_153 + 146y_154 + 158y_155 + 122y_156 + 84y_157 + 132y_158 + 6y_159 + 28y_160 + 46y_161 + 32y_162 + 132y_163 + 132y_164 + 46y_165 + 44y_166 + 102y_167 + 32y_168 + 54y_169 + 16y_170 + 122y_171 + 28y_172 + 70y_173 + 26y_174 + 62y_175 + 102y_176 + 132y_177 + 164y_178 + 12y_179 + 46y_180 + 76y_181 + 84y_182 + 6y_183 + 158y_184 + 28y_185 + 76y_186 + 14y_187 + 7y_188 + 6y_189 + 24y_190 + 46y_191 + 28y_192 + 90y_193 + 12y_194 + 28y_195 + 8y_196 + 2y_197 + 42y_198 + 6y_199 + 28y_200 + 8y_201 + 64y_202 + 9y_203 + 12y_204 + 46y_205 + 2y_206 + 62y_207 + 114y_208 + 40y_209 + 24y_210 + 28y_211 + 12y_212 + 64y_213 + 76y_214 + 26y_215 + 6y_216 + 64y_217 + 28y_218 + 8y_219 + 28y_220 + 24y_221 + 16y_222 + 158y_223 + 132y_224 + 74y_225 + 32y_226 + 72y_227 + 8y_228 + 28y_229 + 64y_230 + 70y_231 + 132y_232 + 28y_233 + 40y_234 + 92y_235 + 8y_236 + 98y_237 + 14y_238 + 64y_239 + 186y_240 + 10y_241 + 7y_242 + 9y_243 + 24y_244 + 16y_245 + 46y_246 + 132y_247 + 6y_248 + 104y_249 + 18y_250 + 72y_251 + 8y_252 + 4y_253 + 7y_254 + 8y_255 + 4y_256 + 90y_257 + 68y_258 + 28y_259 + 28y_260 + 64y_261 + 8y_262 + 76y_263 + 28y_264 + 132y_265 + 24y_266 + 6y_267 + 98y_268 + 60y_269 + 76y_270 + 164y_271 + 4y_272 + 8y_273 + 102y_274 + 6y_275 + 186y_276 + 18y_277 + 44y_278 + 146y_279 + 16y_280 + 24y_281 + 132y_282 + 6y_283 + 46y_284 + 46y_285 + 84y_286 + 112y_287 + 44y_288 + 32y_289 + 28y_290 + 6y_291 + 8y_292 + 2y_293 + 16y_294 + 32y_295 + 122y_296 + 36y_297 + 132y_298 + 46y_299 + 6y_300 + 84y_301 + 28y_302 + 16y_303 + 44y_304 + 6y_305 + 2y_306 + 8y_307 + 26y_308 + 14y_309 + 28y_310 + 8y_311 + 28y_312 + 112y_313 + 46y_314 + 4y_315 + 8y_316 + 102y_317 + 72y_318 + 44y_319 + 16y_320 + 50y_321 + 140y_322 + 12y_323 + 46y_324 + 90y_325 + 26y_326 + 62y_327 + 74y_328 + 46y_329 + 32y_330 + 69y_331 + 43y_332 + 46y_333 + 132y_334 + 102y_335 + 84y_336 + 158y_337 + 28y_338 + 112y_339 + 70y_340 + 28y_341 + 132y_342 + 102y_343 + 24y_344 + 164y_345 + 6y_346 + 60y_347 + 76y_348 + 64y_349 + 76y_350 + 6y_351 + 158y_352 + 74y_353 + 26y_354 + 36y_355 + 24y_356 + 158y_357 + 16y_358 + 70y_359 + 90y_360 + 28y_361 + 36y_362 + 122y_363 + 16y_364 + 24y_365 + 28y_366 + 98y_367 + 8y_368 + 16y_369 + 13y_370 + 74y_371 + 26y_372 + 16y_373 + 42y_374 + 28y_375 + 8y_376 + 46y_377 + 102y_378 + 13y_379 + 15y_380 + 28y_381 + 118y_382 + 62y_383 + 74y_384 + 40y_385 + 70y_386 + 90y_387 + 28y_388 + 28y_389 + 90y_390 + 112y_391 + 6y_392 + 46y_393 + 84y_394 + 32y_395 + 132y_396 + 70y_397 + 24y_398 + 104y_399 + 10y_400 + 36y_401 + 6y_402 + 18y_403 + 17y_404 + 29y_405 + 40y_406 + 90y_407 + 12y_408 + 46y_409 + 70y_410 + 62y_411 + 40y_412 + 118y_413 + 15y_414 + 74y_415 + 14y_416 + 34y_417 + 98y_418 + 76y_419 + 16y_420 + 24y_421 + 46y_422 + 14y_423 + 8y_424 + 122y_425 + 28y_426 + 27y_427 + 14y_428 + 118y_429 + 114y_430 + 2y_431 + 62y_432 + 64y_433 + 72y_434 + 76y_435 + 158y_436 + 32y_437 + 16y_438 + 36y_439 + 2y_440 + 114y_441 + 146y_442 + 28y_443 + 40y_444 + 12y_445 + 112y_446 + 132y_447 + 28y_448 + 46y_449 + 34y_450 + 58y_451 + 98y_452 + 76y_453 + 28y_454 + 132y_455 + 32y_456 + 8y_457 + 26y_458 + 64y_459 + 72y_460 + 6y_461 + 64y_462 + 8y_463 + 130y_464 + 28y_465 + 98y_466 + 34y_467 + 16y_468 + 6y_469 + 2y_470 + 8y_471 + 28y_472 + 42y_473 + 16y_474 + 92y_475 + 66y_476 + 6y_477 + 28y_478 + 2y_479 + 8y_480 + 118y_481 + 74y_482 + 62y_483 + 2y_484 + 69y_485 + 84y_486 + 158y_487 + 26y_488 + 2y_489 + 58y_490 + 132y_491 + 54y_492 + 12y_493 + 28y_494 + 42y_495 + 2y_496 + 8y_497 + 122y_498 + 16y_499 + 24y_500 + 2y_501 + 10y_502 + 114y_503 + 28y_504 + 158y_505 + 32y_506 + 20y_507 + 70y_508 + 54y_509 + 8y_510 + 98y_511 + 140y_512 + 16y_513 + 6y_514 + 26y_515 + 8y_516 + 64y_517 + 36y_518 + 6y_519 + 24y_520 + 18y_521 + 14y_522 + 28y_523 + 98y_524 + 8y_525 + 4y_526 + 72y_527 + 102y_528 + 36y_529 + 24y_530 + 158y_531 + 6y_532 + 54y_533 + 43y_534 + 68y_535 + 4y_536 + 102y_537 + 164y_538
Subject To
x_539 = 8
x_544 = 1
x_545 = 1
x_546 = 1
x_547 = 1
x_540 = 1
x_541 = 1
x_542 = 1
x_543 = 1
x_1 - 9y_1 <= 0
x_2 - 9y_2 <= 0
x_3 - 9y_3 <= 0
x_4 - 9y_4 <= 0
x_5 - 9y_5 <= 0
x_6 - 9y_6 <= 0
x_7 - 9y_7 <= 0
x_8 - 9y_8 <= 0
x_9 - 9y_9 <= 0
x_10 - 9y_10 <= 0
x_11 - 9y_11 <= 0
x_12 - 9y_12 <= 0
x_13 - 9y_13 <= 0
x_14 - 9y_14 <= 0
x_15 - 9y_15 <= 0
x_16 - 9y_16 <= 0
x_17 - 9y_17 <= 0
x_18 - 9y_18 <= 0
x_19 - 9y_19 <= 0
x_20 - 9y_20 <= 0
x_21 - 9y_21 <= 0
x_22 - 9y_22 <= 0
x_23 - 9y_23 <= 0
x_24 - 9y_24 <= 0
x_25 - 9y_25 <= 0
x_26 - 9y_26 <= 0
x_27 - 9y_27 <= 0
x_28 - 9y_28 <= 0
x_29 - 9y_29 <= 0
x_30 - 9y_30 <= 0
x_31 - 9y_31 <= 0
x_32 - 9y_32 <= 0
x_33 - 9y_33 <= 0
x_34 - 9y_34 <= 0
x_35 - 9y_35 <= 0
x_36 - 9y_36 <= 0
x_37 - 9y_37 <= 0
x_38 - 9y_38 <= 0
x_39 - 9y_39 <= 0
x_40 - 9y_40 <= 0
x_41 - 9y_41 <= 0
x_42 - 9y_42 <= 0
x_43 - 9y_43 <= 0
x_44 - 9y_44 <= 0
x_45 - 9y_45 <= 0
x_46 - 9y_46 <= 0
x_47 - 9y_47 <= 0
x_48 - 9y_48 <= 0
x_49 - 9y_49 <= 0
x_50 - 9y_50 <= 0
x_51 - 9y_51 <= 0
x_52 - 9y_52 <= 0
x_53 - 9y_53 <= 0
x_54 - 9y_54 <= 0
x_55 - 9y_55 <= 0
x_56 - 9y_56 <= 0
x_57 - 9y_57 <= 0
x_58 - 9y_58 <= 0
x_59 - 9y_59 <= 0
x_60 - 9y_60 <= 0
x_61 - 9y_61 <= 0
x_62 - 9y_62 <= 0
x_63 - 9y_63 <= 0
x_64 - 9y_64 <= 0
x_65 - 9y_65 <= 0
x_66 - 9y_66 <= 0
x_67 - 9y_67 <= 0
x_68 - 9y_68 <= 0
x_69 - 9y_69 <= 0
x_70 - 9y_70 <= 0
x_71 - 9y_71 <= 0
x_72 - 9y_72 <= 0
x_73 - 9y_73 <= 0
x_74 - 9y_74 <= 0
x_75 - 9y_75 <= 0
x_76 - 9y_76 <= 0
x_77 - 9y_77 <= 0
x_78 - 9y_78 <= 0
x_79 - 9y_79 <= 0
x_80 - 9y_80 <= 0
x_81 - 9y_81 <= 0
x_82 - 9y_82 <= 0
x_83 - 9y_83 <= 0
x_84 - 9y_84 <= 0
x_85 - 9y_85 <= 0
x_86 - 9y_86 <= 0
x_87 - 9y_87 <= 0
x_88 - 9y_88 <= 0
x_89 - 9y_89 <= 0
x_90 - 9y_90 <= 0
x_91 - 9y_91 <= 0
x_92 - 9y_92 <= 0
x_93 - 9y_93 <= 0
x_94 - 9y_94 <= 0
x_95 - 9y_95 <= 0
x_96 - 9y_96 <= 0
x_97 - 9y_97 <= 0
x_98 - 9y_98 <= 0
x_99 - 9y_99 <= 0
x_100 - 9y_100 <= 0
x_101 - 9y_101 <= 0
x_102 - 9y_102 <= 0
x_103 - 9y_103 <= 0
x_104 - 9y_104 <= 0
x_105 - 9y_105 <= 0
x_106 - 9y_106 <= 0
x_107 - 9y_107 <= 0
x_108 - 9y_108 <= 0
x_109 - 9y_109 <= 0
x_110 - 9y_110 <= 0
x_111 - 9y_111 <= 0
x_112 - 9y_112 <= 0
x_113 - 9y_113 <= 0
x_114 - 9y_114 <= 0
x_115 - 9y_115 <= 0
x_116 - 9y_116 <= 0
x_117 - 9y_117 <= 0
x_118 - 9y_118 <= 0
x_119 - 9y_119 <= 0
x_120 - 9y_120 <= 0
x_121 - 9y_121 <= 0
x_122 - 9y_122 <= 0
x_123 - 9y_123 <= 0
x_124 - 9y_124 <= 0
x_125 - 9y_125 <= 0
x_126 - 9y_126 <= 0
x_127 - 9y_127 <= 0
x_128 - 9y_128 <= 0
x_129 - 9y_129 <= 0
x_130 - 9y_130 <= 0
x_131 - 9y_131 <= 0
x_132 - 9y_132 <= 0
x_133 - 9y_133 <= 0
x_134 - 9y_134 <= 0
x_135 - 9y_135 <= 0
x_136 - 9y_136 <= 0
x_137 - 9y_137 <= 0
x_138 - 9y_138 <= 0
x_139 - 9y_139 <= 0
x_140 - 9y_140 <= 0
x_141 - 9y_141 <= 0
x_142 - 9y_142 <= 0
x_143 - 9y_143 <= 0
x_144 - 9y_144 <= 0
x_145 - 9y_145 <= 0
x_146 - 9y_146 <= 0
x_147 - 9y_147 <= 0
x_148 - 9y_148 <= 0
x_149 - 9y_149 <= 0
x_150 - 9y_150 <= 0
x_151 - 9y_151 <= 0
x_152 - 9y_152 <= 0
x_153 - 9y_153 <= 0
x_154 - 9y_154 <= 0
x_155 - 9y_155 <= 0
x_156 - 9y_156 <= 0
x_157 - 9y_157 <= 0
x_158 - 9y_158 <= 0
x_159 - 9y_159 <= 0
x_160 - 9y_160 <= 0
x_161 - 9y_161 <= 0
x_162 - 9y_162 <= 0
x_163 - 9y_163 <= 0
x_164 - 9y_164 <= 0
x_165 - 9y_165 <= 0
x_166 - 9y_166 <= 0
x_167 - 9y_167 <= 0
x_168 - 9y_168 <= 0
x_169 - 9y_169 <= 0
x_170 - 9y_170 <= 0
x_171 - 9y_171 <= 0
x_172 - 9y_172 <= 0
x_173 - 9y_173 <= 0
x_174 - 9y_174 <= 0
x_175 - 9y_175 <= 0
x_176 - 9y_176 <= 0
x_177 - 9y_177 <= 0
x_178 - 9y_178 <= 0
x_179 - 9y_179 <= 0
x_180 - 9y_180 <= 0
x_181 - 9y_181 <= 0
x_182 - 9y_182 <= 0
x_183 - 9y_183 <= 0
x_184 - 9y_184 <= 0
x_185 - 9y_185 <= 0
x_186 - 9y_186 <= 0
x_187 - 9y_187 <= 0
x_188 - 9y_188 <= 0
x_189 - 9y_189 <= 0
x_190 - 9y_190 <= 0
x_191 - 9y_191 <= 0
x_192 - 9y_192 <= 0
x_193 - 9y_193 <= 0
x_194 - 9y_194 <= 0
x_195 - 9y_195 <= 0
x_196 - 9y_196 <= 0
x_197 - 9y_197 <= 0
x_198 - 9y_198 <= 0
x_199 - 9y_199 <= 0
x_200 - 9y_200 <= 0
x_201 - 9y_201 <= 0
x_202 - 9y_202 <= 0
x_203 - 9y_203 <= 0
x_204 - 9y_204 <= 0
x_205 - 9y_205 <= 0
x_206 - 9y_206 <= 0
x_207 - 9y_207 <= 0
x_208 - 9y_208 <= 0
x_209 - 9y_209 <= 0
x_210 - 9y_210 <= 0
x_211 - 9y_211 <= 0
x_212 - 9y_212 <= 0
x_213 - 9y_213 <= 0
x_214 - 9y_214 <= 0
x_215 - 9y_215 <= 0
x_216 - 9y_216 <= 0
x_217 - 9y_217 <= 0
x_218 - 9y_218 <= 0
x_219 - 9y_219 <= 0
x_220 - 9y_220 <= 0
x_221 - 9y_221 <= 0
x_222 - 9y_222 <= 0
x_223 - 9y_223 <= 0
x_224 - 9y_224 <= 0
x_225 - 9y_225 <= 0
x_226 - 9y_226 <= 0
x_227 - 9y_227 <= 0
x_228 - 9y_228 <= 0
x_229 - 9y_229 <= 0
x_230 - 9y_230 <= 0
x_231 - 9y_231 <= 0
x_232 - 9y_232 <= 0
x_233 - 9y_233 <= 0
x_234 - 9y_234 <= 0
x_235 - 9y_235 <= 0
x_236 - 9y_236 <= 0
x_237 - 9y_237 <= 0
x_238 - 9y_238 <= 0
x_239 - 9y_239 <= 0
x_240 - 9y_240 <= 0
x_241 - 9y_241 <= 0
x_242 - 9y_242 <= 0
x_243 - 9y_243 <= 0
x_244 - 9y_244 <= 0
x_245 - 9y_245 <= 0
x_246 - 9y_246 <= 0
x_247 - 9y_247 <= 0
x_248 - 9y_248 <= 0
x_249 - 9y_249 <= 0
x_250 - 9y_250 <= 0
x_251 - 9y_251 <= 0
x_252 - 9y_252 <= 0
x_253 - 9y_253 <= 0
x_254 - 9y_254 <= 0
x_255 - 9y_255 <= 0
x_256 - 9y_256 <= 0
x_257 - 9y_257 <= 0
x_258 - 9y_258 <= 0
x_259 - 9y_259 <= 0
x_260 - 9y_260 <= 0
x_261 - 9y_261 <= 0
x_262 - 9y_262 <= 0
x_263 - 9y_263 <= 0
x_264 - 9y_264 <= 0
x_265 - 9y_265 <= 0
x_266 - 9y_266 <= 0
x_267 - 9y_267 <= 0
x_268 - 9y_268 <= 0
x_269 - 9y_269 <= 0
x_270 - 9y_270 <= 0
x_271 - 9y_271 <= 0
x_272 - 9y_272 <= 0
x_273 - 9y_273 <= 0
x_274 - 9y_274 <= 0
x_275 - 9y_275 <= 0
x_276 - 9y_276 <= 0
x_277 - 9y_277 <= 0
x_278 - 9y_278 <= 0
x_279 - 9y_279 <= 0
x_280 - 9y_280 <= 0
x_281 - 9y_281 <= 0
x_282 - 9y_282 <= 0
x_283 - 9y_283 <= 0
x_284 - 9y_284 <= 0
x_285 - 9y_285 <= 0
x_286 - 9y_286 <= 0
x_287 - 9y_287 <= 0
x_288 - 9y_288 <= 0
x_289 - 9y_289 <= 0
x_290 - 9y_290 <= 0
x_291 - 9y_291 <= 0
x_292 - 9y_292 <= 0
x_293 - 9y_293 <= 0
x_294 - 9y_294 <= 0
x_295 - 9y_295 <= 0
x_296 - 9y_296 <= 0
x_297 - 9y_297 <= 0
x_298 - 9y_298 <= 0
x_299 - 9y_299 <= 0
x_300 - 9y_300 <= 0
x_301 - 9y_301 <= 0
x_302 - 9y_302 <= 0
x_303 - 9y_303 <= 0
x_304 - 9y_304 <= 0
x_305 - 9y_305 <= 0
x_306 - 9y_306 <= 0
x_307 - 9y_307 <= 0
x_308 - 9y_308 <= 0
x_309 - 9y_309 <= 0
x_310 - 9y_310 <= 0
x_311 - 9y_311 <= 0
x_312 - 9y_312 <= 0
x_313 - 9y_313 <= 0
x_314 - 9y_314 <= 0
x_315 - 9y_315 <= 0
x_316 - 9y_316 <= 0
x_317 - 9y_317 <= 0
x_318 - 9y_318 <= 0
x_319 - 9y_319 <= 0
x_320 - 9y_320 <= 0
x_321 - 9y_321 <= 0
x_322 - 9y_322 <= 0
x_323 - 9y_323 <= 0
x_324 - 9y_324 <= 0
x_325 - 9y_325 <= 0
x_326 - 9y_326 <= 0
x_327 - 9y_327 <= 0
x_328 - 9y_328 <= 0
x_329 - 9y_329 <= 0
x_330 - 9y_330 <= 0
x_331 - 9y_331 <= 0
x_332 - 9y_332 <= 0
x_333 - 9y_333 <= 0
x_334 - 9y_334 <= 0
x_335 - 9y_335 <= 0
x_336 - 9y_336 <= 0
x_337 - 9y_337 <= 0
x_338 - 9y_338 <= 0
x_339 - 9y_339 <= 0
x_340 - 9y_340 <= 0
x_341 - 9y_341 <= 0
x_342 - 9y_342 <= 0
x_343 - 9y_343 <= 0
x_344 - 9y_344 <= 0
x_345 - 9y_345 <= 0
x_346 - 9y_346 <= 0
x_347 - 9y_347 <= 0
x_348 - 9y_348 <= 0
x_349 - 9y_349 <= 0
x_350 - 9y_350 <= 0
x_351 - 9y_351 <= 0
x_352 - 9y_352 <= 0
x_353 - 9y_353 <= 0
x_354 - 9y_354 <= 0
x_355 - 9y_355 <= 0
x_356 - 9y_356 <= 0
x_357 - 9y_357 <= 0
x_358 - 9y_358 <= 0
x_359 - 9y_359 <= 0
x_360 - 9y_360 <= 0
x_361 - 9y_361 <= 0
x_362 - 9y_362 <= 0
x_363 - 9y_363 <= 0
x_364 - 9y_364 <= 0
x_365 - 9y_365 <= 0
x_366 - 9y_366 <= 0
x_367 - 9y_367 <= 0
x_368 - 9y_368 <= 0
x_369 - 9y_369 <= 0
x_370 - 9y_370 <= 0
x_371 - 9y_371 <= 0
x_372 - 9y_372 <= 0
x_373 - 9y_373 <= 0
x_374 - 9y_374 <= 0
x_375 - 9y_375 <= 0
x_376 - 9y_376 <= 0
x_377 - 9y_377 <= 0
x_378 - 9y_378 <= 0
x_379 - 9y_379 <= 0
x_380 - 9y_380 <= 0
x_381 - 9y_381 <= 0
x_382 - 9y_382 <= 0
x_383 - 9y_383 <= 0
x_384 - 9y_384 <= 0
x_385 - 9y_385 <= 0
x_386 - 9y_386 <= 0
x_387 - 9y_387 <= 0
x_388 - 9y_388 <= 0
x_389 - 9y_389 <= 0
x_390 - 9y_390 <= 0
x_391 - 9y_391 <= 0
x_392 - 9y_392 <= 0
x_393 - 9y_393 <= 0
x_394 - 9y_394 <= 0
x_395 - 9y_395 <= 0
x_396 - 9y_396 <= 0
x_397 - 9y_397 <= 0
x_398 - 9y_398 <= 0
x_399 - 9y_399 <= 0
x_400 - 9y_400 <= 0
x_401 - 9y_401 <= 0
x_402 - 9y_402 <= 0
x_403 - 9y_403 <= 0
x_404 - 9y_404 <= 0
x_405 - 9y_405 <= 0
x_406 - 9y_406 <= 0
x_407 - 9y_407 <= 0
x_408 - 9y_408 <= 0
x_409 - 9y_409 <= 0
x_410 - 9y_410 <= 0
x_411 - 9y_411 <= 0
x_412 - 9y_412 <= 0
x_413 - 9y_413 <= 0
x_414 - 9y_414 <= 0
x_415 - 9y_415 <= 0
x_416 - 9y_416 <= 0
x_417 - 9y_417 <= 0
x_418 - 9y_418 <= 0
x_419 - 9y_419 <= 0
x_420 - 9y_420 <= 0
x_421 - 9y_421 <= 0
x_422 - 9y_422 <= 0
x_423 - 9y_423 <= 0
x_424 - 9y_424 <= 0
x_425 - 9y_425 <= 0
x_426 - 9y_426 <= 0
x_427 - 9y_427 <= 0
x_428 - 9y_428 <= 0
x_429 - 9y_429 <= 0
x_430 - 9y_430 <= 0
x_431 - 9y_431 <= 0
x_432 - 9y_432 <= 0
x_433 - 9y_433 <= 0
x_434 - 9y_434 <= 0
x_435 - 9y_435 <= 0
x_436 - 9y_436 <= 0
x_437 - 9y_437 <= 0
x_438 - 9y_438 <= 0
x_439 - 9y_439 <= 0
x_440 - 9y_440 <= 0
x_441 - 9y_441 <= 0
x_442 - 9y_442 <= 0
x_443 - 9y_443 <= 0
x_444 - 9y_444 <= 0
x_445 - 9y_445 <= 0
x_446 - 9y_446 <= 0
x_447 - 9y_447 <= 0
x_448 - 9y_448 <= 0
x_449 - 9y_449 <= 0
x_450 - 9y_450 <= 0
x_451 - 9y_451 <= 0
x_452 - 9y_452 <= 0
x_453 - 9y_453 <= 0
x_454 - 9y_454 <= 0
x_455 - 9y_455 <= 0
x_456 - 9y_456 <= 0
x_457 - 9y_457 <= 0
x_458 - 9y_458 <= 0
x_459 - 9y_459 <= 0
x_460 - 9y_460 <= 0
x_461 - 9y_461 <= 0
x_462 - 9y_462 <= 0
x_463 - 9y_463 <= 0
x_464 - 9y_464 <= 0
x_465 - 9y_465 <= 0
x_466 - 9y_466 <= 0
x_467 - 9y_467 <= 0
x_468 - 9y_468 <= 0
x_469 - 9y_469 <= 0
x_470 - 9y_470 <= 0
x_471 - 9y_471 <= 0
x_472 - 9y_472 <= 0
x_473 - 9y_473 <= 0
x_474 - 9y_474 <= 0
x_475 - 9y_475 <= 0
x_476 - 9y_476 <= 0
x_477 - 9y_477 <= 0
x_478 - 9y_478 <= 0
x_479 - 9y_479 <= 0
x_480 - 9y_480 <= 0
x_481 - 9y_481 <= 0
x_482 - 9y_482 <= 0
x_483 - 9y_483 <= 0
x_484 - 9y_484 <= 0
x_485 - 9y_485 <= 0
x_486 - 9y_486 <= 0
x_487 - 9y_487 <= 0
x_488 - 9y_488 <= 0
x_489 - 9y_489 <= 0
x_490 - 9y_490 <= 0
x_491 - 9y_491 <= 0
x_492 - 9y_492 <= 0
x_493 - 9y_493 <= 0
x_494 - 9y_494 <= 0
x_495 - 9y_495 <= 0
x_496 - 9y_496 <= 0
x_497 - 9y_497 <= 0
x_498 - 9y_498 <= 0
x_499 - 9y_499 <= 0
x_500 - 9y_500 <= 0
x_501 - 9y_501 <= 0
x_502 - 9y_502 <= 0
x_503 - 9y_503 <= 0
x_504 - 9y_504 <= 0
x_505 - 9y_505 <= 0
x_506 - 9y_506 <= 0
x_507 - 9y_507 <= 0
x_508 - 9y_508 <= 0
x_509 - 9y_509 <= 0
x_510 - 9y_510 <= 0
x_511 - 9y_511 <= 0
x_512 - 9y_512 <= 0
x_513 - 9y_513 <= 0
x_514 - 9y_514 <= 0
x_515 - 9y_515 <= 0
x_516 - 9y_516 <= 0
x_517 - 9y_517 <= 0
x_518 - 9y_518 <= 0
x_519 - 9y_519 <= 0
x_520 - 9y_520 <= 0
x_521 - 9y_521 <= 0
x_522 - 9y_522 <= 0
x_523 - 9y_523 <= 0
x_524 - 9y_524 <= 0
x_525 - 9y_525 <= 0
x_526 - 9y_526 <= 0
x_527 - 9y_527 <= 0
x_528 - 9y_528 <= 0
x_529 - 9y_529 <= 0
x_530 - 9y_530 <= 0
x_531 - 9y_531 <= 0
x_532 - 9y_532 <= 0
x_533 - 9y_533 <= 0
x_534 - 9y_534 <= 0
x_535 - 9y_535 <= 0
x_536 - 9y_536 <= 0
x_537 - 9y_537 <= 0
x_538 - 9y_538 <= 0
x_1 - x_154 +  x_2 - x_111 = 0
x_4 - x_321 +  x_5 - x_239 +  x_3 - x_72 = 0
x_8 - x_383 +  x_7 - x_172 +  x_6 - x_429 = 0
x_9 - x_66 +  x_10 - x_101 +  x_12 - x_226 +  x_11 - x_411 = 0
x_15 - x_371 +  x_13 - x_381 +  x_14 - x_326 +  x_16 - x_175 = 0
x_17 - x_53 +  x_18 - x_443 +  x_20 - x_194 +  x_19 - x_407 = 0
x_22 - x_378 +  x_21 - x_165 +  x_23 - x_44 = 0
x_26 - x_121 +  x_25 - x_231 +  x_24 - x_93 +  x_27 - x_138 = 0
x_28 - x_31 +  x_29 - x_482 +  x_30 - x_413 = 0
x_33 - x_104 +  x_31 - x_28 +  x_32 - x_65 = 0
x_36 - x_437 +  x_34 - x_505 +  x_35 - x_85 = 0
x_37 - x_330 +  x_39 - x_420 +  x_38 - x_40 = 0
x_42 - x_162 +  x_40 - x_38 +  x_41 - x_245 +  x_43 - x_59 = 0
x_45 - x_405 +  x_46 - x_312 +  x_44 - x_23 = 0
x_49 - x_262 +  x_47 - x_462 +  x_48 - x_83 = 0
x_52 - x_488 +  x_50 - x_196 +  x_51 - x_306 = 0
x_54 - x_135 +  x_53 - x_17 +  x_56 - x_387 +  x_55 - x_233 = 0
x_57 - x_112 +  x_58 - x_124 +  x_60 - x_456 +  x_59 - x_43 = 0
x_63 - x_301 +  x_62 - x_285 +  x_61 - x_446 +  x_64 - x_99 = 0
x_67 - x_89 +  x_65 - x_32 +  x_66 - x_9 = 0
x_68 - x_264 +  x_70 - x_531 +  x_69 - x_221 +  x_71 - x_183 = 0
x_73 - x_82 +  x_72 - x_3 +  x_74 - x_464 = 0
x_76 - x_86 +  x_75 - x_168 +  x_77 - x_492 = 0
x_78 - x_116 +  x_79 - x_470 +  x_80 - x_497 = 0
x_82 - x_73 +  x_84 - x_241 +  x_83 - x_48 +  x_81 - x_533 = 0
x_85 - x_35 +  x_86 - x_76 +  x_87 - x_295 = 0
x_88 - x_225 +  x_89 - x_67 = 0
x_90 - x_320 +  x_92 - x_304 +  x_91 - x_512 = 0
x_95 - x_397 +  x_93 - x_24 +  x_94 - x_404 +  x_96 - x_448 = 0
x_97 - x_157 +  x_100 - x_123 +  x_99 - x_64 +  x_98 - x_338 = 0
x_103 - x_484 +  x_102 - x_207 +  x_101 - x_10 +  x_104 - x_33 = 0
x_108 - x_142 +  x_106 - x_348 +  x_105 - x_489 +  x_107 - x_308 = 0
x_109 - x_186 +  x_111 - x_2 +  x_110 - x_129 = 0
x_113 - x_222 +  x_112 - x_57 +  x_115 - x_506 +  x_114 - x_436 = 0
x_119 - x_513 +  x_118 - x_322 +  x_116 - x_78 +  x_117 - x_376 = 0
x_121 - x_26 +  x_120 - x_388 +  x_122 - x_447 +  x_123 - x_100 = 0
x_126 - x_266 +  x_127 - x_247 +  x_124 - x_58 +  x_125 - x_220 = 0
x_129 - x_110 +  x_128 - x_268 +  x_130 - x_419 = 0
x_132 - x_486 +  x_133 - x_184 +  x_131 - x_401 +  x_134 - x_532 = 0
x_138 - x_27 +  x_137 - x_360 +  x_135 - x_54 +  x_136 - x_389 = 0
x_139 - x_213 +  x_142 - x_108 +  x_140 - x_515 +  x_141 - x_350 = 0
x_144 - x_493 +  x_143 - x_507 - x_545 = 0
x_146 - x_476 +  x_145 - x_327 +  x_147 - x_174 = 0
x_149 - x_188 - x_546 +  x_148 - x_427 = 0
x_152 - x_417 +  x_150 - x_523 +  x_153 - x_428 +  x_151 - x_466 = 0
x_156 - x_425 +  x_155 - x_352 +  x_154 - x_1 = 0
x_159 - x_267 +  x_157 - x_97 +  x_158 - x_298 +  x_160 - x_185 = 0
x_163 - x_455 +  x_161 - x_329 +  x_162 - x_42 = 0
x_166 - x_288 +  x_164 - x_342 +  x_167 - x_335 +  x_165 - x_21 = 0
x_171 - x_296 +  x_168 - x_75 +  x_170 - x_499 +  x_169 - x_509 = 0
x_173 - x_340 +  x_174 - x_147 +  x_172 - x_7 +  x_175 - x_16 = 0
x_176 - x_343 +  x_178 - x_538 +  x_177 - x_334 = 0
x_180 - x_409 +  x_181 - x_263 +  x_179 - x_204 = 0
x_184 - x_133 +  x_185 - x_160 +  x_183 - x_71 +  x_182 - x_336 = 0
x_187 - x_416 +  x_186 - x_109 +  x_188 - x_149 = 0
x_191 - x_284 +  x_190 - x_421 +  x_189 - x_392 = 0
x_194 - x_20 +  x_192 - x_211 +  x_193 - x_325 = 0
x_196 - x_50 +  x_197 - x_479 +  x_195 - x_494 +  x_198 - x_473 = 0
x_200 - x_218 +  x_201 - x_516 +  x_199 - x_477 +  x_202 - x_230 = 0
x_205 - x_324 +  x_203 - x_243 +  x_204 - x_179 = 0
x_206 - x_431 +  x_207 - x_102 +  x_208 - x_503 +  x_209 - x_412 = 0
x_212 - x_445 +  x_211 - x_192 +  x_210 - x_344 = 0
x_213 - x_139 +  x_215 - x_458 +  x_214 - x_435 = 0
x_217 - x_261 +  x_218 - x_200 +  x_216 - x_291 +  x_219 - x_463 = 0
x_221 - x_69 +  x_223 - x_357 +  x_222 - x_113 +  x_220 - x_125 = 0
x_224 - x_491 +  x_226 - x_12 +  x_225 - x_88 = 0
x_230 - x_202 +  x_228 - x_457 +  x_229 - x_260 +  x_227 - x_251 = 0
x_233 - x_55 +  x_234 - x_444 +  x_231 - x_25 +  x_232 - x_396 = 0
x_237 - x_511 +  x_235 - x_475 +  x_238 - x_423 +  x_236 - x_525 = 0
x_241 - x_84 +  x_239 - x_5 +  x_240 - x_276 = 0
x_243 - x_203 - x_543 +  x_242 - x_254 = 0
x_245 - x_41 +  x_244 - x_281 +  x_247 - x_127 +  x_246 - x_422 = 0
x_250 - x_521 +  x_249 - x_399 +  x_248 - x_275 = 0
x_251 - x_227 +  x_253 - x_256 +  x_252 - x_316 = 0
x_254 - x_242 +  x_255 - x_273 +  x_256 - x_253 = 0
x_258 - x_535 +  x_259 - x_361 +  x_257 - x_390 = 0
x_263 - x_181 +  x_260 - x_229 +  x_261 - x_217 +  x_262 - x_49 = 0
x_265 - x_282 +  x_264 - x_68 +  x_267 - x_159 +  x_266 - x_126 = 0
x_269 - x_347 +  x_268 - x_128 +  x_270 - x_453 = 0
x_273 - x_255 +  x_271 - x_345 +  x_272 - x_315 +  x_274 - x_537 = 0
x_275 - x_248 +  x_276 - x_240 +  x_277 - x_403 = 0
x_280 - x_303 +  x_279 - x_442 +  x_278 - x_319 = 0
x_281 - x_244 +  x_282 - x_265 +  x_283 - x_300 +  x_284 - x_191 = 0
x_286 - x_394 +  x_287 - x_313 +  x_285 - x_62 = 0
x_289 - x_395 +  x_288 - x_166 - x_542 = 0
x_292 - x_471 +  x_293 - x_496 +  x_290 - x_478 +  x_291 - x_216 = 0
x_297 - x_439 +  x_294 - x_364 +  x_295 - x_87 +  x_296 - x_171 = 0
x_299 - x_393 +  x_298 - x_158 +  x_300 - x_283 +  x_301 - x_63 = 0
x_302 - x_341 +  x_303 - x_280 +  x_304 - x_92 = 0
x_307 - x_480 +  x_305 - x_514 +  x_308 - x_107 +  x_306 - x_51 = 0
x_309 - x_522 +  x_310 - x_426 +  x_311 - x_424 = 0
x_312 - x_46 +  x_314 - x_449 +  x_313 - x_287 = 0
x_318 - x_460 +  x_315 - x_272 +  x_316 - x_252 +  x_317 - x_528 = 0
x_320 - x_90 +  x_321 - x_4 +  x_319 - x_278 +  x_322 - x_118 = 0
x_323 - x_408 +  x_325 - x_193 +  x_324 - x_205 = 0
x_327 - x_145 +  x_326 - x_14 +  x_328 - x_353 = 0
x_329 - x_161 +  x_330 - x_37 = 0
x_331 - x_485 - x_540 +  x_332 - x_534 = 0
x_334 - x_177 +  x_333 - x_377 +  x_335 - x_167 = 0
x_336 - x_182 +  x_337 - x_487 +  x_339 - x_391 +  x_338 - x_98 = 0
x_341 - x_302 - x_541 +  x_340 - x_173 = 0
x_345 - x_271 +  x_344 - x_210 +  x_342 - x_164 +  x_343 - x_176 = 0
x_346 - x_351 +  x_348 - x_106 +  x_347 - x_269 = 0
x_351 - x_346 +  x_350 - x_141 +  x_349 - x_433 = 0
x_352 - x_155 +  x_353 - x_328 +  x_354 - x_372 = 0
x_356 - x_530 +  x_357 - x_223 +  x_355 - x_362 +  x_358 - x_438 = 0
x_360 - x_137 +  x_359 - x_386 +  x_361 - x_259 = 0
x_365 - x_520 +  x_362 - x_355 +  x_363 - x_498 +  x_364 - x_294 = 0
x_367 - x_524 +  x_368 - x_510 +  x_366 - x_465 +  x_369 - x_373 = 0
x_370 - x_379 +  x_372 - x_354 +  x_371 - x_15 = 0
x_376 - x_117 +  x_374 - x_495 +  x_373 - x_369 +  x_375 - x_472 = 0
x_378 - x_22 +  x_377 - x_333 = 0
x_379 - x_370 +  x_380 - x_414 +  x_539 = 0
x_382 - x_481 +  x_384 - x_415 +  x_383 - x_8 +  x_381 - x_13 = 0
x_386 - x_359 +  x_387 - x_56 +  x_385 - x_406 = 0
x_391 - x_339 +  x_390 - x_257 +  x_388 - x_120 +  x_389 - x_136 = 0
x_392 - x_189 +  x_393 - x_299 +  x_394 - x_286 = 0
x_396 - x_232 +  x_395 - x_289 +  x_397 - x_95 = 0
x_398 - x_500 +  x_399 - x_249 +  x_400 - x_502 = 0
x_401 - x_131 +  x_403 - x_277 +  x_402 - x_519 = 0
-x_544 +  x_405 - x_45 +  x_404 - x_94 = 0
x_408 - x_323 +  x_409 - x_180 +  x_406 - x_385 +  x_407 - x_19 = 0
x_412 - x_209 +  x_410 - x_508 +  x_411 - x_11 = 0
x_413 - x_30 +  x_415 - x_384 +  x_414 - x_380 = 0
x_418 - x_452 +  x_419 - x_130 +  x_416 - x_187 +  x_417 - x_152 = 0
x_420 - x_39 +  x_421 - x_190 +  x_422 - x_246 = 0
x_424 - x_311 +  x_425 - x_156 +  x_423 - x_238 = 0
x_428 - x_153 +  x_426 - x_310 +  x_427 - x_148 = 0
x_429 - x_6 +  x_431 - x_206 +  x_430 - x_441 +  x_432 - x_483 = 0
x_433 - x_349 +  x_434 - x_527 +  x_435 - x_214 = 0
x_439 - x_297 +  x_436 - x_114 +  x_438 - x_358 +  x_437 - x_36 = 0
x_440 - x_501 +  x_442 - x_279 +  x_441 - x_430 = 0
x_444 - x_234 +  x_445 - x_212 +  x_443 - x_18 = 0
x_446 - x_61 +  x_447 - x_122 +  x_448 - x_96 +  x_449 - x_314 = 0
x_452 - x_418 +  x_450 - x_467 +  x_451 - x_490 +  x_453 - x_270 = 0
x_455 - x_163 +  x_454 - x_504 +  x_456 - x_60 = 0
x_457 - x_228 +  x_460 - x_318 +  x_458 - x_215 +  x_459 - x_517 = 0
x_462 - x_47 +  x_463 - x_219 +  x_461 - x_469 +  x_464 - x_74 = 0
x_468 - x_474 +  x_465 - x_366 +  x_467 - x_450 +  x_466 - x_151 = 0
x_469 - x_461 +  x_470 - x_79 +  x_471 - x_292 = 0
x_472 - x_375 +  x_473 - x_198 +  x_474 - x_468 = 0
x_475 - x_235 - x_547 +  x_476 - x_146 = 0
x_478 - x_290 +  x_480 - x_307 +  x_477 - x_199 +  x_479 - x_197 = 0
x_483 - x_432 +  x_484 - x_103 +  x_481 - x_382 +  x_482 - x_29 = 0
x_485 - x_331 +  x_486 - x_132 +  x_487 - x_337 = 0
x_490 - x_451 +  x_489 - x_105 +  x_488 - x_52 = 0
x_493 - x_144 +  x_491 - x_224 +  x_492 - x_77 = 0
x_494 - x_195 +  x_496 - x_293 +  x_495 - x_374 +  x_497 - x_80 = 0
x_500 - x_398 +  x_498 - x_363 +  x_499 - x_170 = 0
x_501 - x_440 +  x_503 - x_208 +  x_502 - x_400 = 0
x_506 - x_115 +  x_504 - x_454 +  x_505 - x_34 = 0
x_507 - x_143 +  x_509 - x_169 +  x_508 - x_410 = 0
x_510 - x_368 +  x_513 - x_119 +  x_511 - x_237 +  x_512 - x_91 = 0
x_517 - x_459 +  x_516 - x_201 +  x_514 - x_305 +  x_515 - x_140 = 0
x_518 - x_529 +  x_520 - x_365 +  x_521 - x_250 +  x_519 - x_402 = 0
x_523 - x_150 +  x_522 - x_309 +  x_524 - x_367 +  x_525 - x_236 = 0
x_528 - x_317 +  x_527 - x_434 +  x_526 - x_536 = 0
x_529 - x_518 +  x_532 - x_134 +  x_530 - x_356 +  x_531 - x_70 = 0
x_533 - x_81 +  x_534 - x_332 +  x_535 - x_258 = 0
x_536 - x_526 +  x_537 - x_274 +  x_538 - x_178 = 0
Bounds
x_1 >= 0
x_2 >= 0
x_3 >= 0
x_4 >= 0
x_5 >= 0
x_6 >= 0
x_7 >= 0
x_8 >= 0
x_9 >= 0
x_10 >= 0
x_11 >= 0
x_12 >= 0
x_13 >= 0
x_14 >= 0
x_15 >= 0
x_16 >= 0
x_17 >= 0
x_18 >= 0
x_19 >= 0
x_20 >= 0
x_21 >= 0
x_22 >= 0
x_23 >= 0
x_24 >= 0
x_25 >= 0
x_26 >= 0
x_27 >= 0
x_28 >= 0
x_29 >= 0
x_30 >= 0
x_31 >= 0
x_32 >= 0
x_33 >= 0
x_34 >= 0
x_35 >= 0
x_36 >= 0
x_37 >= 0
x_38 >= 0
x_39 >= 0
x_40 >= 0
x_41 >= 0
x_42 >= 0
x_43 >= 0
x_44 >= 0
x_45 >= 0
x_46 >= 0
x_47 >= 0
x_48 >= 0
x_49 >= 0
x_50 >= 0
x_51 >= 0
x_52 >= 0
x_53 >= 0
x_54 >= 0
x_55 >= 0
x_56 >= 0
x_57 >= 0
x_58 >= 0
x_59 >= 0
x_60 >= 0
x_61 >= 0
x_62 >= 0
x_63 >= 0
x_64 >= 0
x_65 >= 0
x_66 >= 0
x_67 >= 0
x_68 >= 0
x_69 >= 0
x_70 >= 0
x_71 >= 0
x_72 >= 0
x_73 >= 0
x_74 >= 0
x_75 >= 0
x_76 >= 0
x_77 >= 0
x_78 >= 0
x_79 >= 0
x_80 >= 0
x_81 >= 0
x_82 >= 0
x_83 >= 0
x_84 >= 0
x_85 >= 0
x_86 >= 0
x_87 >= 0
x_88 >= 0
x_89 >= 0
x_90 >= 0
x_91 >= 0
x_92 >= 0
x_93 >= 0
x_94 >= 0
x_95 >= 0
x_96 >= 0
x_97 >= 0
x_98 >= 0
x_99 >= 0
x_100 >= 0
x_101 >= 0
x_102 >= 0
x_103 >= 0
x_104 >= 0
x_105 >= 0
x_106 >= 0
x_107 >= 0
x_108 >= 0
x_109 >= 0
x_110 >= 0
x_111 >= 0
x_112 >= 0
x_113 >= 0
x_114 >= 0
x_115 >= 0
x_116 >= 0
x_117 >= 0
x_118 >= 0
x_119 >= 0
x_120 >= 0
x_121 >= 0
x_122 >= 0
x_123 >= 0
x_124 >= 0
x_125 >= 0
x_126 >= 0
x_127 >= 0
x_128 >= 0
x_129 >= 0
x_130 >= 0
x_131 >= 0
x_132 >= 0
x_133 >= 0
x_134 >= 0
x_135 >= 0
x_136 >= 0
x_137 >= 0
x_138 >= 0
x_139 >= 0
x_140 >= 0
x_141 >= 0
x_142 >= 0
x_143 >= 0
x_144 >= 0
x_145 >= 0
x_146 >= 0
x_147 >= 0
x_148 >= 0
x_149 >= 0
x_150 >= 0
x_151 >= 0
x_152 >= 0
x_153 >= 0
x_154 >= 0
x_155 >= 0
x_156 >= 0
x_157 >= 0
x_158 >= 0
x_159 >= 0
x_160 >= 0
x_161 >= 0
x_162 >= 0
x_163 >= 0
x_164 >= 0
x_165 >= 0
x_166 >= 0
x_167 >= 0
x_168 >= 0
x_169 >= 0
x_170 >= 0
x_171 >= 0
x_172 >= 0
x_173 >= 0
x_174 >= 0
x_175 >= 0
x_176 >= 0
x_177 >= 0
x_178 >= 0
x_179 >= 0
x_180 >= 0
x_181 >= 0
x_182 >= 0
x_183 >= 0
x_184 >= 0
x_185 >= 0
x_186 >= 0
x_187 >= 0
x_188 >= 0
x_189 >= 0
x_190 >= 0
x_191 >= 0
x_192 >= 0
x_193 >= 0
x_194 >= 0
x_195 >= 0
x_196 >= 0
x_197 >= 0
x_198 >= 0
x_199 >= 0
x_200 >= 0
x_201 >= 0
x_202 >= 0
x_203 >= 0
x_204 >= 0
x_205 >= 0
x_206 >= 0
x_207 >= 0
x_208 >= 0
x_209 >= 0
x_210 >= 0
x_211 >= 0
x_212 >= 0
x_213 >= 0
x_214 >= 0
x_215 >= 0
x_216 >= 0
x_217 >= 0
x_218 >= 0
x_219 >= 0
x_220 >= 0
x_221 >= 0
x_222 >= 0
x_223 >= 0
x_224 >= 0
x_225 >= 0
x_226 >= 0
x_227 >= 0
x_228 >= 0
x_229 >= 0
x_230 >= 0
x_231 >= 0
x_232 >= 0
x_233 >= 0
x_234 >= 0
x_235 >= 0
x_236 >= 0
x_237 >= 0
x_238 >= 0
x_239 >= 0
x_240 >= 0
x_241 >= 0
x_242 >= 0
x_243 >= 0
x_244 >= 0
x_245 >= 0
x_246 >= 0
x_247 >= 0
x_248 >= 0
x_249 >= 0
x_250 >= 0
x_251 >= 0
x_252 >= 0
x_253 >= 0
x_254 >= 0
x_255 >= 0
x_256 >= 0
x_257 >= 0
x_258 >= 0
x_259 >= 0
x_260 >= 0
x_261 >= 0
x_262 >= 0
x_263 >= 0
x_264 >= 0
x_265 >= 0
x_266 >= 0
x_267 >= 0
x_268 >= 0
x_269 >= 0
x_270 >= 0
x_271 >= 0
x_272 >= 0
x_273 >= 0
x_274 >= 0
x_275 >= 0
x_276 >= 0
x_277 >= 0
x_278 >= 0
x_279 >= 0
x_280 >= 0
x_281 >= 0
x_282 >= 0
x_283 >= 0
x_284 >= 0
x_285 >= 0
x_286 >= 0
x_287 >= 0
x_288 >= 0
x_289 >= 0
x_290 >= 0
x_291 >= 0
x_292 >= 0
x_293 >= 0
x_294 >= 0
x_295 >= 0
x_296 >= 0
x_297 >= 0
x_298 >= 0
x_299 >= 0
x_300 >= 0
x_301 >= 0
x_302 >= 0
x_303 >= 0
x_304 >= 0
x_305 >= 0
x_306 >= 0
x_307 >= 0
x_308 >= 0
x_309 >= 0
x_310 >= 0
x_311 >= 0
x_312 >= 0
x_313 >= 0
x_314 >= 0
x_315 >= 0
x_316 >= 0
x_317 >= 0
x_318 >= 0
x_319 >= 0
x_320 >= 0
x_321 >= 0
x_322 >= 0
x_323 >= 0
x_324 >= 0
x_325 >= 0
x_326 >= 0
x_327 >= 0
x_328 >= 0
x_329 >= 0
x_330 >= 0
x_331 >= 0
x_332 >= 0
x_333 >= 0
x_334 >= 0
x_335 >= 0
x_336 >= 0
x_337 >= 0
x_338 >= 0
x_339 >= 0
x_340 >= 0
x_341 >= 0
x_342 >= 0
x_343 >= 0
x_344 >= 0
x_345 >= 0
x_346 >= 0
x_347 >= 0
x_348 >= 0
x_349 >= 0
x_350 >= 0
x_351 >= 0
x_352 >= 0
x_353 >= 0
x_354 >= 0
x_355 >= 0
x_356 >= 0
x_357 >= 0
x_358 >= 0
x_359 >= 0
x_360 >= 0
x_361 >= 0
x_362 >= 0
x_363 >= 0
x_364 >= 0
x_365 >= 0
x_366 >= 0
x_367 >= 0
x_368 >= 0
x_369 >= 0
x_370 >= 0
x_371 >= 0
x_372 >= 0
x_373 >= 0
x_374 >= 0
x_375 >= 0
x_376 >= 0
x_377 >= 0
x_378 >= 0
x_379 >= 0
x_380 >= 0
x_381 >= 0
x_382 >= 0
x_383 >= 0
x_384 >= 0
x_385 >= 0
x_386 >= 0
x_387 >= 0
x_388 >= 0
x_389 >= 0
x_390 >= 0
x_391 >= 0
x_392 >= 0
x_393 >= 0
x_394 >= 0
x_395 >= 0
x_396 >= 0
x_397 >= 0
x_398 >= 0
x_399 >= 0
x_400 >= 0
x_401 >= 0
x_402 >= 0
x_403 >= 0
x_404 >= 0
x_405 >= 0
x_406 >= 0
x_407 >= 0
x_408 >= 0
x_409 >= 0
x_410 >= 0
x_411 >= 0
x_412 >= 0
x_413 >= 0
x_414 >= 0
x_415 >= 0
x_416 >= 0
x_417 >= 0
x_418 >= 0
x_419 >= 0
x_420 >= 0
x_421 >= 0
x_422 >= 0
x_423 >= 0
x_424 >= 0
x_425 >= 0
x_426 >= 0
x_427 >= 0
x_428 >= 0
x_429 >= 0
x_430 >= 0
x_431 >= 0
x_432 >= 0
x_433 >= 0
x_434 >= 0
x_435 >= 0
x_436 >= 0
x_437 >= 0
x_438 >= 0
x_439 >= 0
x_440 >= 0
x_441 >= 0
x_442 >= 0
x_443 >= 0
x_444 >= 0
x_445 >= 0
x_446 >= 0
x_447 >= 0
x_448 >= 0
x_449 >= 0
x_450 >= 0
x_451 >= 0
x_452 >= 0
x_453 >= 0
x_454 >= 0
x_455 >= 0
x_456 >= 0
x_457 >= 0
x_458 >= 0
x_459 >= 0
x_460 >= 0
x_461 >= 0
x_462 >= 0
x_463 >= 0
x_464 >= 0
x_465 >= 0
x_466 >= 0
x_467 >= 0
x_468 >= 0
x_469 >= 0
x_470 >= 0
x_471 >= 0
x_472 >= 0
x_473 >= 0
x_474 >= 0
x_475 >= 0
x_476 >= 0
x_477 >= 0
x_478 >= 0
x_479 >= 0
x_480 >= 0
x_481 >= 0
x_482 >= 0
x_483 >= 0
x_484 >= 0
x_485 >= 0
x_486 >= 0
x_487 >= 0
x_488 >= 0
x_489 >= 0
x_490 >= 0
x_491 >= 0
x_492 >= 0
x_493 >= 0
x_494 >= 0
x_495 >= 0
x_496 >= 0
x_497 >= 0
x_498 >= 0
x_499 >= 0
x_500 >= 0
x_501 >= 0
x_502 >= 0
x_503 >= 0
x_504 >= 0
x_505 >= 0
x_506 >= 0
x_507 >= 0
x_508 >= 0
x_509 >= 0
x_510 >= 0
x_511 >= 0
x_512 >= 0
x_513 >= 0
x_514 >= 0
x_515 >= 0
x_516 >= 0
x_517 >= 0
x_518 >= 0
x_519 >= 0
x_520 >= 0
x_521 >= 0
x_522 >= 0
x_523 >= 0
x_524 >= 0
x_525 >= 0
x_526 >= 0
x_527 >= 0
x_528 >= 0
x_529 >= 0
x_530 >= 0
x_531 >= 0
x_532 >= 0
x_533 >= 0
x_534 >= 0
x_535 >= 0
x_536 >= 0
x_537 >= 0
x_538 >= 0
x_539 >= 0
x_540 >= 0
x_541 >= 0
x_542 >= 0
x_543 >= 0
x_544 >= 0
x_545 >= 0
x_546 >= 0
x_547 >= 0
General
Binaries
y_1
y_2
y_3
y_4
y_5
y_6
y_7
y_8
y_9
y_10
y_11
y_12
y_13
y_14
y_15
y_16
y_17
y_18
y_19
y_20
y_21
y_22
y_23
y_24
y_25
y_26
y_27
y_28
y_29
y_30
y_31
y_32
y_33
y_34
y_35
y_36
y_37
y_38
y_39
y_40
y_41
y_42
y_43
y_44
y_45
y_46
y_47
y_48
y_49
y_50
y_51
y_52
y_53
y_54
y_55
y_56
y_57
y_58
y_59
y_60
y_61
y_62
y_63
y_64
y_65
y_66
y_67
y_68
y_69
y_70
y_71
y_72
y_73
y_74
y_75
y_76
y_77
y_78
y_79
y_80
y_81
y_82
y_83
y_84
y_85
y_86
y_87
y_88
y_89
y_90
y_91
y_92
y_93
y_94
y_95
y_96
y_97
y_98
y_99
y_100
y_101
y_102
y_103
y_104
y_105
y_106
y_107
y_108
y_109
y_110
y_111
y_112
y_113
y_114
y_115
y_116
y_117
y_118
y_119
y_120
y_121
y_122
y_123
y_124
y_125
y_126
y_127
y_128
y_129
y_130
y_131
y_132
y_133
y_134
y_135
y_136
y_137
y_138
y_139
y_140
y_141
y_142
y_143
y_144
y_145
y_146
y_147
y_148
y_149
y_150
y_151
y_152
y_153
y_154
y_155
y_156
y_157
y_158
y_159
y_160
y_161
y_162
y_163
y_164
y_165
y_166
y_167
y_168
y_169
y_170
y_171
y_172
y_173
y_174
y_175
y_176
y_177
y_178
y_179
y_180
y_181
y_182
y_183
y_184
y_185
y_186
y_187
y_188
y_189
y_190
y_191
y_192
y_193
y_194
y_195
y_196
y_197
y_198
y_199
y_200
y_201
y_202
y_203
y_204
y_205
y_206
y_207
y_208
y_209
y_210
y_211
y_212
y_213
y_214
y_215
y_216
y_217
y_218
y_219
y_220
y_221
y_222
y_223
y_224
y_225
y_226
y_227
y_228
y_229
y_230
y_231
y_232
y_233
y_234
y_235
y_236
y_237
y_238
y_239
y_240
y_241
y_242
y_243
y_244
y_245
y_246
y_247
y_248
y_249
y_250
y_251
y_252
y_253
y_254
y_255
y_256
y_257
y_258
y_259
y_260
y_261
y_262
y_263
y_264
y_265
y_266
y_267
y_268
y_269
y_270
y_271
y_272
y_273
y_274
y_275
y_276
y_277
y_278
y_279
y_280
y_281
y_282
y_283
y_284
y_285
y_286
y_287
y_288
y_289
y_290
y_291
y_292
y_293
y_294
y_295
y_296
y_297
y_298
y_299
y_300
y_301
y_302
y_303
y_304
y_305
y_306
y_307
y_308
y_309
y_310
y_311
y_312
y_313
y_314
y_315
y_316
y_317
y_318
y_319
y_320
y_321
y_322
y_323
y_324
y_325
y_326
y_327
y_328
y_329
y_330
y_331
y_332
y_333
y_334
y_335
y_336
y_337
y_338
y_339
y_340
y_341
y_342
y_343
y_344
y_345
y_346
y_347
y_348
y_349
y_350
y_351
y_352
y_353
y_354
y_355
y_356
y_357
y_358
y_359
y_360
y_361
y_362
y_363
y_364
y_365
y_366
y_367
y_368
y_369
y_370
y_371
y_372
y_373
y_374
y_375
y_376
y_377
y_378
y_379
y_380
y_381
y_382
y_383
y_384
y_385
y_386
y_387
y_388
y_389
y_390
y_391
y_392
y_393
y_394
y_395
y_396
y_397
y_398
y_399
y_400
y_401
y_402
y_403
y_404
y_405
y_406
y_407
y_408
y_409
y_410
y_411
y_412
y_413
y_414
y_415
y_416
y_417
y_418
y_419
y_420
y_421
y_422
y_423
y_424
y_425
y_426
y_427
y_428
y_429
y_430
y_431
y_432
y_433
y_434
y_435
y_436
y_437
y_438
y_439
y_440
y_441
y_442
y_443
y_444
y_445
y_446
y_447
y_448
y_449
y_450
y_451
y_452
y_453
y_454
y_455
y_456
y_457
y_458
y_459
y_460
y_461
y_462
y_463
y_464
y_465
y_466
y_467
y_468
y_469
y_470
y_471
y_472
y_473
y_474
y_475
y_476
y_477
y_478
y_479
y_480
y_481
y_482
y_483
y_484
y_485
y_486
y_487
y_488
y_489
y_490
y_491
y_492
y_493
y_494
y_495
y_496
y_497
y_498
y_499
y_500
y_501
y_502
y_503
y_504
y_505
y_506
y_507
y_508
y_509
y_510
y_511
y_512
y_513
y_514
y_515
y_516
y_517
y_518
y_519
y_520
y_521
y_522
y_523
y_524
y_525
y_526
y_527
y_528
y_529
y_530
y_531
y_532
y_533
y_534
y_535
y_536
y_537
y_538
End
