data/solutions/exact100kb/instance012.txt
VALUE 1703
2 94
5 110
17 115
25 70
29 118
42 152
43 51
44 128
50 149
5 51
53 122
53 60
17 68
69 142
2 70
60 71
76 159
82 89
85 118
89 101
91 127
82 94
98 159
51 101
76 107
110 113
107 115
68 118
119 150
29 121
115 122
69 127
91 128
82 132
43 142
119 149
132 150
50 152
25 159

